p cnf 82 81
-3 0
-5 0
-7 0
-9 0
-11 0
-13 0
-15 0
-17 0
-19 0
-21 0
-25 0
-41 0
-45 0
-67 0
-69 0
-83 0
-85 0
-87 0
-91 0
-93 0
-95 0
-101 0
-123 0
-125 0
-149 0
-153 0
-155 0
-159 0
-161 0
-163 0
-165 0
-173 0
-175 0
-177 0
-179 0
-181 0
-185 0
-191 0
-1 -343 0
-695 0
-697 0
-699 0
-701 0
-703 0
-705 0
-711 0
-715 0
-717 0
-719 0
-721 0
-723 0
-725 0
-727 0
-729 0
-731 0
-733 0
-739 0
-741 0
-743 0
-745 0
-747 0
-749 0
-771 0
-773 0
-775 0
-777 0
-779 0
-781 0
-783 0
-785 0
-787 0
-789 0
-795 0
-797 0
-799 0
-801 0
-803 0
-805 0
-807 0
-809 0
-811 0
